ssat_solver_solve2
#level: 2
Abc_NtkNodeNum(s->pNtk): 591  , BDD limit: 10240
level 1: 20 element
Exist
existence_eliminate_scope
Abc_NtkIsBddLogic(pNtk): 0
Abc_NtkIsStrash(pNtk): 1
existence_eliminate_scope_aig
exist by BDD failed
Abc_NtkNodeNum(s->pNtk): 8313713  , BDD limit: 9976455
Build BDD success
level 0: 20 element
Random
c ssat solving in ABC
#var: 40
s SATISFIABLE
  > Upper bound = 0.000000e+00
  > Lower bound = 0.000000e+00
FINISHED CPU 422.61 MEM 0 MAXMEM 1630972 STALE 0 MAXMEM_RSS 1479036
<time name="ALL">422670</time>
real 422.77
user 488.87
sys 186.32
